PREC = Low
IBRION = 2
POTIM=.080
NSW = 0
IALGO = 38  
ISMEAR = 0
SIGMA = 0.01
LREAL = .TRUE
LWAVE = .TRUE.
LCHARG = .TRUE.
EDIFFG= .0001
LVTOT   =  .TRUE.

