Ni - (111) + CO on-top
  3.53
   .70710678  .0000000  .000000
 -0.35355339 0.6123724  .000000
   .000000    .000000  5.1961524
    5 1 1
selective dynamics
direct
   .00000000   .00000000   .00000000  F  F  F
   .33333333   .66666667   .11111111  F  F  F
   .66666667   .33333333   .22222222  F  F  F
   .00000000   .00000000   .33333333  T  T  T
   .33333333   .66666667   .44444444  T  T  T
   .33333333   .66666667   .54029062  T  T  T
   .33333333   .66666667   .60298866  T  T  T
