Si Bulk (Primitive Cell)
5.43
   0.000000   2.715000   2.715000
   2.715000   0.000000   2.715000
   2.715000   2.715000   0.000000
Si
2
Direct
   0.000000   0.000000   0.000000
   0.250000   0.250000   0.250000
