units           lj

atom_style      atomic

neighbor        0.3 bin

neigh_modify    delay 0 every 20 check no

pair_style      lj/cut 2.5

read_data       system.data

pair_coeff      1 1 1.0 1.0 2.5

variable        t index 100

fix             1 all nve

thermo          100

run             $t
