%nproc=4                      
#P TEST STO-3G COMPLEX pop=full scf=conventional
 
Gaussian Test Job 01
SINGLET DELTA STO-3G//STO-3G DIOXYGEN
 
 0 1
 O
 O 1 R
 
R 1.220
                          
                          
 
