Ir H                                    
    3.843478532500000     
  1.0000000000000000  0.0000000000000000  0.0000000000000000
  0.0000000000000000  1.0000000000000000  0.0000000000000000
  0.0000000000000000  0.0000000000000000  1.0000000000000000
4  1  
Selective dynamics
Direct
  0.1250000000000000  0.1250000000000000  0.1250000000000000 F F F
  0.1250093732110970  0.6347365307867811  0.6347392986421539 T T T
  0.6347376589415220  0.1250078773319520  0.6347403096457270 T T T
  0.6347392554251640  0.6347384798094000  0.1250106783242760 T T T
  0.4798574857686970  0.4798522934338900  0.4798533865005060 T T T
